# Tetracyclic Alpha Polymer Simulation (g-factor = 0.445)
# Based on Cantarella et al. 2022 research

units lj
atom_style molecular
boundary p p p

# Read data file
read_data alpha_polymer.data

# Force field parameters
pair_style lj/cut 2.5
pair_coeff * * 1.0 1.0 2.5

bond_style harmonic
bond_coeff 1 30.0 1.5

# Fixes for molecular dynamics
fix 1 all nve
fix 2 all langevin 1.0 1.0 1.0 12345

# Thermodynamic output
thermo 1000
thermo_style custom step temp pe ke etotal press

# Compute radius of gyration
compute myRg all gyration

# Output files
dump 1 all custom 5000 trajectory.lammpstrj id type x y z
fix 3 all ave/time 100 1 100 c_myRg file gyration.txt

# Run simulation
timestep 0.01
run 100000

# Output final results
print "Final Radius of Gyration: $(c_myRg)"
print "Expected g-factor: 0.445"
